10J3M/DAT/10J3MUNA-3.dat
10 3
29.174 851.1223
19.8375 393.5264
16.9229 286.3845
7.5897 57.6035
36.3815 1323.6135
22.1752 491.7395
22.9401 526.2482
32.8352 1078.1504
46.4099 2153.8788
10.3955 108.0664
7270.3335