10J3M/SOL/10J3MUNA-3.sol
solution status: optimal solution found
objective value:                     112.003333333333
x#1#2                                               1 	(obj:0)
x#2#2                                               1 	(obj:0)
x#3#3                                               1 	(obj:0)
x#4#1                                               1 	(obj:0)
x#5#1                                               1 	(obj:0)
x#6#1                                               1 	(obj:0)
x#7#2                               0.760978470411458 	(obj:0)
x#7#3                               0.239021529588542 	(obj:0)
x#8#1                                               1 	(obj:0)
x#9#3                                               1 	(obj:0)
x#10#1                              0.487246905527431 	(obj:0)
x#10#3                              0.512753094472568 	(obj:0)
z                                    112.003333333333 	(obj:1)
